36 105
71 28
71 26
4 151
31 127
85 56
98 22
61 37
25 141
27 60
40 10
1 194
10 98
40 79
64 68
34 99
10 200
34 68
4 114
38 104
3 180
74 37
25 120
31 56
98 2
41 55
57 35
3 77
91 27
14 76
14 142
19 6
78 11
43 74
49 23
32 117
18 17
26 97
10 123
57 83
66 20
40 75
51 25
66 51
9 10
8 149
23 60
30 121
10 13
69 80
10 78
21 102
1 113
5 8
23 194
50 26
1 172
20 114
34 169
2 128
21 35
24 70
30 40
32 62
31 133
28 67
23 34
21 18
84 13
8 113
44 42
15 20
64 33
26 94
85 6
15 84
46 18
49 92
88 20
76 71
83 22
44 27
50 77
9 9
18 153
24 82
51 59
15 6
25 68
1 122
61 14
64 42
36 94
26 134
39 153
20 98
7 105
8 197
14 154
41 27
